58919
14,30,452,465,475,559,613,651,751,812,814,818,853,922,1090,1152,1305,1456,1556,1631,1659,1857,2103,2144,2161,2261,2302,2360,2457,2548,2636,2769,2784,2916,3153,3168,3247,3273,3442,3602,3605,3708,3773,3814,3834,3852,4275,4694,4714,4758,4961,5021,5064,5099,5250,5313,5514,5571,5782,5797,5976,6045,6198,6241,6301,6368,6575,6802,7009,7152,7164,7243,7353,7387,7467,7493,7698,7867,8044,8201,8335,8344,8413,8537,8719,8728,9295,9401,9454,9587,9792,9909,9917,9993
